submitit INFO (2023-04-29 16:25:38,866) - Starting with JobEnvironment(job_id=27468, hostname=cpunode3, local_rank=1(5), node=0(1), global_rank=1(5))
submitit INFO (2023-04-29 16:25:38,866) - Loading pickle: /h/30/pashootan/Matrix-Mult-CP/src/../logs/2x2x2_4_Apr29_16:25:37/27468_submitted.pkl
 ! --------------------------------------------------- CP Optimizer 22.1.1.0 --
 ! Satisfiability problem - 48 variables, 144 constraints
 ! TimeLimit            = 172800
 ! Workers              = 8
 ! LogPeriod            = 10000000
 ! RandomSeed           = 4634
 ! Initial process time : 0.00s (0.00s extraction + 0.00s propagation)
 !  . Log search space  : 76.1 (before), 76.1 (after)
 !  . Memory usage      : 437.9 kB (before), 437.9 kB (after)
 ! Using parallel search with 8 workers.
 ! ----------------------------------------------------------------------------
 !               Branches  Non-fixed    W       Branch decision
 ! ----------------------------------------------------------------------------
 ! Search completed, model has no solution.
 ! ----------------------------------------------------------------------------
 ! Number of branches     : 35976221
 ! Number of fails        : 17783228
 ! Total memory usage     : 32.0 MB (32.0 MB CP Optimizer + 0.0 MB Concert)
 ! Time spent in solve    : 48.86s (48.86s engine + 0.00s extraction)
 ! Search speed (br. / s) : 736312.3
 ! ----------------------------------------------------------------------------
Infeasible
Saving stats to: /h/30/pashootan/Matrix-Mult-CP/logs/2x2x2_4_Apr29_16:25:37/27468_1_stats.csv
submitit INFO (2023-04-29 16:26:28,382) - Job completed successfully
